c 
c G(k,n,p) graph
c graph gen seed     : 5201
c number of vertices : 60
c max number of edges: 900
c number of classes  : 2
c edge density       : 0.100000
c edge probability   : 0.200000
c data structure     : sparse
c
c           Graph Stats
c number of vertices  : 60
c nonisolated vertices: 60
c number of edges     : 175
c edge density        : 0.098870
c max degree          : 12
c avg degree          : 5.83
c min degree          : 1
p col 60 175
e 1 48
e 1 46
e 1 21
e 1 17
e 1 16
e 1 8
e 2 58
e 2 47
e 2 43
e 2 41
e 2 31
e 2 26
e 3 40
e 3 18
e 4 58
e 4 39
e 4 37
e 4 31
e 4 25
e 5 54
e 5 19
e 6 55
e 6 44
e 6 13
e 6 12
e 7 49
e 7 35
e 7 30
e 7 27
e 7 13
e 7 11
e 8 35
e 8 24
e 8 15
e 8 12
e 9 60
e 9 53
e 9 28
e 9 26
e 10 24
e 11 53
e 11 39
e 11 32
e 11 23
e 12 51
e 12 47
e 12 39
e 12 36
e 12 31
e 13 53
e 13 46
e 13 33
e 13 26
e 13 21
e 14 60
e 14 58
e 14 47
e 14 34
e 14 32
e 14 21
e 15 51
e 15 48
e 15 31
e 15 21
e 16 55
e 16 54
e 16 50
e 16 42
e 16 29
e 16 27
e 16 20
e 16 18
e 17 19
e 17 18
e 18 58
e 18 51
e 18 41
e 18 34
e 19 46
e 19 39
e 19 37
e 20 58
e 20 51
e 20 43
e 20 41
e 20 37
e 20 28
e 20 23
e 20 21
e 21 57
e 21 22
e 22 48
e 22 46
e 22 34
e 22 32
e 22 31
e 23 56
e 23 29
e 24 46
e 24 43
e 24 32
e 25 54
e 25 49
e 25 27
e 26 49
e 26 38
e 27 60
e 27 59
e 27 53
e 27 51
e 27 37
e 27 36
e 27 33
e 28 45
e 28 44
e 28 40
e 28 30
e 28 29
e 29 60
e 29 48
e 29 39
e 29 36
e 30 59
e 30 47
e 30 39
e 30 37
e 30 34
e 30 31
e 31 55
e 31 54
e 31 49
e 31 45
e 31 44
e 31 42
e 32 56
e 32 55
e 32 54
e 32 52
e 33 54
e 33 50
e 33 49
e 33 38
e 34 54
e 34 52
e 34 50
e 34 38
e 34 35
e 35 53
e 35 46
e 35 37
e 36 57
e 36 55
e 36 40
e 37 55
e 37 54
e 37 44
e 37 38
e 39 50
e 40 53
e 41 54
e 43 45
e 45 58
e 45 53
e 46 52
e 47 56
e 47 55
e 48 50
e 49 51
e 50 51
e 52 59
e 53 55
e 53 54
e 54 60
e 54 58
e 55 59
